NAME : X-n157-k13
COMMENT : "Generated by Uchoa, Pecin, Pessoa, Poggi, Subramanian, and Vidal (2013)"
TYPE : CVRP
DIMENSION : 157
EDGE_WEIGHT_TYPE : EUC_2D
EDGE_WEIGHT_FORMAT : 
CAPACITY : 12
DISTANCE : 1.79769e+308
SERVICE_TIME : 0
NODE_COORD_SECTION
1 769 259
2 91 377
3 108 338
4 816 567
5 725 520
6 117 357
7 766 559
8 90 417
9 255 430
10 63 384
11 35 276
12 122 318
13 85 322
14 267 348
15 937 546
16 865 461
17 863 547
18 724 431
19 148 144
20 243 571
21 871 512
22 782 596
23 77 272
24 776 650
25 166 371
26 69 239
27 972 607
28 320 521
29 91 434
30 20 305
31 81 271
32 776 669
33 830 553
34 148 243
35 160 202
36 741 527
37 877 561
38 587 551
39 808 435
40 26 278
41 58 394
42 755 444
43 817 557
44 165 367
45 216 510
46 124 330
47 96 587
48 132 369
49 163 234
50 915 492
51 753 657
52 161 319
53 37 227
54 898 747
55 770 524
56 745 582
57 695 469
58 124 355
59 11 283
60 258 406
61 72 335
62 713 399
63 866 626
64 214 344
65 213 349
66 864 577
67 98 440
68 701 512
69 884 559
70 842 518
71 125 379
72 352 410
73 206 228
74 825 592
75 93 252
76 863 511
77 98 347
78 115 326
79 71 392
80 96 248
81 65 404
82 75 342
83 140 300
84 129 340
85 129 273
86 846 696
87 109 463
88 863 586
89 139 356
90 77 351
91 154 322
92 231 323
93 115 394
94 844 558
95 98 454
96 739 568
97 179 443
98 862 618
99 764 764
100 844 554
101 174 319
102 703 319
103 151 453
104 863 569
105 72 473
106 632 575
107 823 578
108 26 42
109 47 381
110 71 336
111 754 484
112 137 465
113 80 355
114 172 296
115 28 310
116 754 579
117 531 662
118 87 382
119 866 481
120 93 337
121 942 567
122 788 567
123 824 451
124 926 901
125 182 500
126 98 384
127 104 370
128 48 462
129 952 629
130 239 324
131 138 516
132 747 605
133 136 460
134 748 624
135 43 268
136 792 597
137 95 352
138 109 413
139 67 224
140 104 386
141 817 672
142 183 360
143 922 652
144 779 419
145 863 721
146 40 456
147 66 395
148 862 465
149 383 357
150 307 434
151 233 421
152 329 280
153 623 554
154 103 349
155 736 688
156 75 266
157 174 406
PICKUP_AND_DELIVERY_SECTION
1 0 0 0 0 0 0
2 0 0 0 0 0 1
3 0 0 0 0 0 1
4 0 0 0 0 0 1
5 0 0 0 0 0 1
6 0 0 0 0 0 1
7 0 0 0 0 0 1
8 0 0 0 0 0 1
9 0 0 0 0 0 1
10 0 0 0 0 0 1
11 0 0 0 0 1 0
12 0 0 0 0 0 1
13 0 0 0 0 0 1
14 0 0 0 0 0 1
15 0 0 0 0 0 1
16 0 0 0 0 0 1
17 0 0 0 0 0 1
18 0 0 0 0 0 1
19 0 0 0 0 0 1
20 0 0 0 0 0 1
21 0 0 0 0 1 0
22 0 0 0 0 0 1
23 0 0 0 0 0 1
24 0 0 0 0 0 1
25 0 0 0 0 0 1
26 0 0 0 0 0 1
27 0 0 0 0 0 1
28 0 0 0 0 0 1
29 0 0 0 0 0 1
30 0 0 0 0 0 1
31 0 0 0 0 1 0
32 0 0 0 0 0 1
33 0 0 0 0 0 1
34 0 0 0 0 0 1
35 0 0 0 0 0 1
36 0 0 0 0 0 1
37 0 0 0 0 0 1
38 0 0 0 0 0 1
39 0 0 0 0 0 1
40 0 0 0 0 0 1
41 0 0 0 0 1 0
42 0 0 0 0 0 1
43 0 0 0 0 0 1
44 0 0 0 0 0 1
45 0 0 0 0 0 1
46 0 0 0 0 0 1
47 0 0 0 0 0 1
48 0 0 0 0 0 1
49 0 0 0 0 0 1
50 0 0 0 0 0 1
51 0 0 0 0 1 0
52 0 0 0 0 0 1
53 0 0 0 0 0 1
54 0 0 0 0 0 1
55 0 0 0 0 0 1
56 0 0 0 0 0 1
57 0 0 0 0 0 1
58 0 0 0 0 0 1
59 0 0 0 0 0 1
60 0 0 0 0 0 1
61 0 0 0 0 1 0
62 0 0 0 0 0 1
63 0 0 0 0 0 1
64 0 0 0 0 0 1
65 0 0 0 0 0 1
66 0 0 0 0 0 1
67 0 0 0 0 0 1
68 0 0 0 0 0 1
69 0 0 0 0 0 1
70 0 0 0 0 0 1
71 0 0 0 0 1 0
72 0 0 0 0 0 1
73 0 0 0 0 0 1
74 0 0 0 0 0 1
75 0 0 0 0 0 1
76 0 0 0 0 0 1
77 0 0 0 0 0 1
78 0 0 0 0 0 1
79 0 0 0 0 0 1
80 0 0 0 0 0 1
81 0 0 0 0 1 0
82 0 0 0 0 0 1
83 0 0 0 0 0 1
84 0 0 0 0 0 1
85 0 0 0 0 0 1
86 0 0 0 0 0 1
87 0 0 0 0 0 1
88 0 0 0 0 0 1
89 0 0 0 0 0 1
90 0 0 0 0 0 1
91 0 0 0 0 1 0
92 0 0 0 0 0 1
93 0 0 0 0 0 1
94 0 0 0 0 0 1
95 0 0 0 0 0 1
96 0 0 0 0 0 1
97 0 0 0 0 0 1
98 0 0 0 0 0 1
99 0 0 0 0 0 1
100 0 0 0 0 0 1
101 0 0 0 0 1 0
102 0 0 0 0 0 1
103 0 0 0 0 0 1
104 0 0 0 0 0 1
105 0 0 0 0 0 1
106 0 0 0 0 0 1
107 0 0 0 0 0 1
108 0 0 0 0 0 1
109 0 0 0 0 0 1
110 0 0 0 0 0 1
111 0 0 0 0 1 0
112 0 0 0 0 0 1
113 0 0 0 0 0 1
114 0 0 0 0 0 1
115 0 0 0 0 0 1
116 0 0 0 0 0 1
117 0 0 0 0 0 1
118 0 0 0 0 0 1
119 0 0 0 0 0 1
120 0 0 0 0 0 1
121 0 0 0 0 1 0
122 0 0 0 0 0 1
123 0 0 0 0 0 1
124 0 0 0 0 0 1
125 0 0 0 0 0 1
126 0 0 0 0 0 1
127 0 0 0 0 0 1
128 0 0 0 0 0 1
129 0 0 0 0 0 1
130 0 0 0 0 0 1
131 0 0 0 0 1 0
132 0 0 0 0 0 1
133 0 0 0 0 0 1
134 0 0 0 0 0 1
135 0 0 0 0 0 1
136 0 0 0 0 0 1
137 0 0 0 0 0 1
138 0 0 0 0 0 1
139 0 0 0 0 0 1
140 0 0 0 0 0 1
141 0 0 0 0 1 0
142 0 0 0 0 0 1
143 0 0 0 0 0 1
144 0 0 0 0 0 1
145 0 0 0 0 0 1
146 0 0 0 0 0 1
147 0 0 0 0 0 1
148 0 0 0 0 0 1
149 0 0 0 0 0 1
150 0 0 0 0 0 1
151 0 0 0 0 1 0
152 0 0 0 0 0 1
153 0 0 0 0 0 1
154 0 0 0 0 0 1
155 0 0 0 0 0 1
156 0 0 0 0 0 1
157 0 0 0 0 0 1
